param set_len = 22;
param target_sum = 560726529;
param values := [1] 131600299 [2] 49500646 [3] 44604090 [4] 104783068 [5] 5547536 [6] 28415090 [7] 54934687 [8] 52222042 [9] 98599542 [10] 21298392 [11] 55753358 [12] 105604949 [13] 25119914 [14] 70002882 [15] 23295137 [16] 106701653 [17] 26706452 [18] 75896039 [19] 40923083 [20] 103035680 [21] 103015454 [22] 22390629 ;
